db/data/1001083752792510359203153054276425334.z3.out
-------------------
2500.169683899
